(set-logic QF_S)
(declare-fun x () String)
(declare-fun y () String)
(declare-fun z () Int)
(assert (not (= (str.replace (str.replace "" x y) "A" "B") (str.replace "" x (str.replace y "A" "B")))))
(check-sat)
